20	5
0	3	3	2	1
1	2	14	13
2	1	7
3	1	14
4	2	20	12
5	2	19	6
6	2	9	18
7	1	10
8	1	17
9	1	17
10	4	19	9	15	14
11	1	8
12	2	5	8
13	1	4
14	1	11
15	1	21
16	1	21
17	1	21
18	1	21
19	1	21
20	1	21
21	0
0	0	0	0	0	0	0
1	9	3	3	3	0	5
2	3	2	3	4	0	0
3	9	5	0	0	0	5
4	7	2	1	4	5	5
5	4	2	5	5	4	2
6	1	5	2	5	3	2
7	10	4	5	2	0	0
8	3	0	0	3	0	3
9	5	4	4	4	2	5
10	5	5	5	2	4	1
11	1	5	1	1	0	0
12	7	2	0	4	1	2
13	9	0	0	1	0	2
14	9	0	4	2	2	0
15	1	1	1	0	3	3
16	1	4	1	2	2	4
17	8	2	4	2	4	2
18	10	1	4	2	3	1
19	8	0	3	3	1	0
20	10	5	0	3	0	0
21	0	0	0	0	0	0
6	6	5	6	6
